NAME : X-n172-k51
COMMENT : "Generated by Uchoa, Pecin, Pessoa, Poggi, Subramanian, and Vidal (2013)"
TYPE : CVRP
DIMENSION : 172
EDGE_WEIGHT_TYPE : EUC_2D
CAPACITY : 161
NODE_COORD_SECTION
1 500 500
2 363 697
3 120 259
4 555 718
5 522 918
6 239 935
7 304 517
8 856 96
9 38 904
10 174 951
11 294 935
12 942 324
13 402 176
14 766 450
15 473 862
16 262 550
17 661 92
18 440 655
19 678 291
20 345 691
21 564 903
22 952 802
23 698 352
24 297 930
25 66 244
26 882 642
27 777 818
28 302 212
29 824 647
30 143 946
31 108 600
32 121 755
33 697 32
34 473 995
35 342 252
36 596 534
37 248 211
38 940 88
39 81 468
40 144 796
41 244 385
42 437 42
43 381 583
44 263 549
45 153 646
46 187 688
47 248 71
48 27 70
49 649 477
50 244 370
51 145 49
52 589 402
53 105 251
54 986 452
55 486 773
56 679 851
57 102 734
58 619 809
59 139 138
60 107 489
61 921 579
62 681 336
63 925 185
64 260 655
65 46 832
66 534 440
67 117 590
68 604 453
69 667 428
70 871 548
71 943 171
72 181 252
73 172 696
74 211 597
75 82 390
76 114 189
77 659 852
78 404 544
79 169 845
80 101 663
81 422 503
82 124 861
83 289 778
84 923 842
85 464 148
86 377 32
87 482 570
88 933 156
89 987 678
90 995 62
91 241 242
92 802 86
93 944 185
94 972 48
95 964 77
96 244 244
97 992 67
98 89 157
99 989 59
100 953 76
101 347 358
102 415 494
103 971 672
104 941 146
105 391 594
106 904 106
107 649 92
108 951 94
109 917 77
110 134 331
111 948 183
112 389 254
113 796 197
114 243 283
115 965 174
116 304 381
117 914 661
118 198 245
119 207 258
120 926 85
121 961 726
122 881 145
123 849 115
124 923 678
125 577 535
126 266 216
127 160 154
128 890 105
129 368 725
130 563 538
131 509 502
132 921 174
133 819 266
134 324 181
135 500 580
136 435 652
137 470 524
138 460 344
139 917 630
140 843 747
141 355 700
142 969 653
143 956 76
144 470 464
145 940 704
146 982 738
147 998 704
148 416 492
149 215 222
150 992 115
151 433 446
152 354 552
153 884 204
154 439 345
155 472 663
156 980 116
157 494 573
158 51 27
159 934 44
160 930 835
161 216 30
162 862 251
163 267 215
164 212 71
165 941 68
166 918 719
167 554 709
168 602 591
169 936 725
170 428 536
171 405 594
172 629 450
PICKUP_AND_DELIVERY_SECTION
1 0 0 1000000000 0 0 0
2 0 0 1000000000 0 0 30
3 0 0 1000000000 0 0 82
4 0 0 1000000000 0 0 70
5 0 0 1000000000 0 0 92
6 0 0 1000000000 0 0 25
7 0 0 1000000000 0 0 23
8 0 0 1000000000 0 0 11
9 0 0 1000000000 0 0 41
10 0 0 1000000000 0 0 15
11 0 0 1000000000 0 5 0
12 0 0 1000000000 0 0 17
13 0 0 1000000000 0 0 70
14 0 0 1000000000 0 0 36
15 0 0 1000000000 0 0 47
16 0 0 1000000000 0 0 24
17 0 0 1000000000 0 0 11
18 0 0 1000000000 0 0 6
19 0 0 1000000000 0 0 23
20 0 0 1000000000 0 0 5
21 0 0 1000000000 0 54 0
22 0 0 1000000000 0 0 74
23 0 0 1000000000 0 0 6
24 0 0 1000000000 0 0 9
25 0 0 1000000000 0 0 58
26 0 0 1000000000 0 0 96
27 0 0 1000000000 0 0 80
28 0 0 1000000000 0 0 100
29 0 0 1000000000 0 0 65
30 0 0 1000000000 0 0 3
31 0 0 1000000000 0 46 0
32 0 0 1000000000 0 0 16
33 0 0 1000000000 0 0 47
34 0 0 1000000000 0 0 33
35 0 0 1000000000 0 0 84
36 0 0 1000000000 0 0 73
37 0 0 1000000000 0 0 75
38 0 0 1000000000 0 0 27
39 0 0 1000000000 0 0 99
40 0 0 1000000000 0 0 50
41 0 0 1000000000 0 65 0
42 0 0 1000000000 0 0 79
43 0 0 1000000000 0 0 42
44 0 0 1000000000 0 0 46
45 0 0 1000000000 0 0 9
46 0 0 1000000000 0 0 13
47 0 0 1000000000 0 0 97
48 0 0 1000000000 0 0 79
49 0 0 1000000000 0 0 6
50 0 0 1000000000 0 0 63
51 0 0 1000000000 0 65 0
52 0 0 1000000000 0 0 14
53 0 0 1000000000 0 0 91
54 0 0 1000000000 0 0 6
55 0 0 1000000000 0 0 6
56 0 0 1000000000 0 0 69
57 0 0 1000000000 0 0 13
58 0 0 1000000000 0 0 55
59 0 0 1000000000 0 0 69
60 0 0 1000000000 0 0 67
61 0 0 1000000000 0 53 0
62 0 0 1000000000 0 0 35
63 0 0 1000000000 0 0 19
64 0 0 1000000000 0 0 49
65 0 0 1000000000 0 0 47
66 0 0 1000000000 0 0 36
67 0 0 1000000000 0 0 24
68 0 0 1000000000 0 0 15
69 0 0 1000000000 0 0 15
70 0 0 1000000000 0 0 52
71 0 0 1000000000 0 48 0
72 0 0 1000000000 0 0 60
73 0 0 1000000000 0 0 43
74 0 0 1000000000 0 0 11
75 0 0 1000000000 0 0 72
76 0 0 1000000000 0 0 62
77 0 0 1000000000 0 0 73
78 0 0 1000000000 0 0 43
79 0 0 1000000000 0 0 25
80 0 0 1000000000 0 0 38
81 0 0 1000000000 0 19 0
82 0 0 1000000000 0 0 25
83 0 0 1000000000 0 0 31
84 0 0 1000000000 0 0 77
85 0 0 1000000000 0 0 70
86 0 0 1000000000 0 0 84
87 0 0 1000000000 0 0 36
88 0 0 1000000000 0 0 3
89 0 0 1000000000 0 0 64
90 0 0 1000000000 0 0 36
91 0 0 1000000000 0 70 0
92 0 0 1000000000 0 0 15
93 0 0 1000000000 0 0 8
94 0 0 1000000000 0 0 14
95 0 0 1000000000 0 0 27
96 0 0 1000000000 0 0 73
97 0 0 1000000000 0 0 11
98 0 0 1000000000 0 0 90
99 0 0 1000000000 0 0 34
100 0 0 1000000000 0 0 7
101 0 0 1000000000 0 72 0
102 0 0 1000000000 0 0 52
103 0 0 1000000000 0 0 90
104 0 0 1000000000 0 0 45
105 0 0 1000000000 0 0 12
106 0 0 1000000000 0 0 2
107 0 0 1000000000 0 0 11
108 0 0 1000000000 0 0 8
109 0 0 1000000000 0 0 16
110 0 0 1000000000 0 0 75
111 0 0 1000000000 0 38 0
112 0 0 1000000000 0 0 52
113 0 0 1000000000 0 0 20
114 0 0 1000000000 0 0 82
115 0 0 1000000000 0 0 20
116 0 0 1000000000 0 0 94
117 0 0 1000000000 0 0 61
118 0 0 1000000000 0 0 84
119 0 0 1000000000 0 0 76
120 0 0 1000000000 0 0 34
121 0 0 1000000000 0 51 0
122 0 0 1000000000 0 0 50
123 0 0 1000000000 0 0 44
124 0 0 1000000000 0 0 53
125 0 0 1000000000 0 0 97
126 0 0 1000000000 0 0 81
127 0 0 1000000000 0 0 58
128 0 0 1000000000 0 0 47
129 0 0 1000000000 0 0 4
130 0 0 1000000000 0 0 74
131 0 0 1000000000 0 74 0
132 0 0 1000000000 0 0 42
133 0 0 1000000000 0 0 43
134 0 0 1000000000 0 0 51
135 0 0 1000000000 0 0 94
136 0 0 1000000000 0 0 17
137 0 0 1000000000 0 0 45
138 0 0 1000000000 0 0 88
139 0 0 1000000000 0 0 63
140 0 0 1000000000 0 0 66
141 0 0 1000000000 0 34 0
142 0 0 1000000000 0 0 72
143 0 0 1000000000 0 0 27
144 0 0 1000000000 0 0 78
145 0 0 1000000000 0 0 53
146 0 0 1000000000 0 0 64
147 0 0 1000000000 0 0 58
148 0 0 1000000000 0 0 86
149 0 0 1000000000 0 0 94
150 0 0 1000000000 0 0 23
151 0 0 1000000000 0 51 0
152 0 0 1000000000 0 0 21
153 0 0 1000000000 0 0 34
154 0 0 1000000000 0 0 86
155 0 0 1000000000 0 0 36
156 0 0 1000000000 0 0 35
157 0 0 1000000000 0 0 14
158 0 0 1000000000 0 0 72
159 0 0 1000000000 0 0 33
160 0 0 1000000000 0 0 98
161 0 0 1000000000 0 60 0
162 0 0 1000000000 0 0 45
163 0 0 1000000000 0 0 60
164 0 0 1000000000 0 0 80
165 0 0 1000000000 0 0 13
166 0 0 1000000000 0 0 87
167 0 0 1000000000 0 0 75
168 0 0 1000000000 0 0 77
169 0 0 1000000000 0 0 71
170 0 0 1000000000 0 0 49
171 0 0 1000000000 0 22 0
172 0 0 1000000000 0 0 2
